(declare-fun e () String)
(declare-fun c () String)
(declare-fun g () String)
(declare-fun b () String)
(declare-fun d () String)
(declare-fun f () String)
(declare-fun a () String)
(declare-fun h () String)
(assert (= (str.++ h "f" d) (str.++ a "a" g)))
(assert (= (str.++ "dd" d "cg") (str.++ e f b)))
(assert (= (str.++ e "g" f) (str.++ h c g "d")))

(check-sat)
